p cnf 78 261
-7 1 0
-7 2 0
7 -1 -2 0
-8 1 0
-8 3 0
8 -1 -3 0
-9 1 0
-9 4 0
9 -1 -4 0
-10 1 0
-10 5 0
10 -1 -5 0
-11 1 0
-11 6 0
11 -1 -6 0
-12 2 0
-12 3 0
12 -2 -3 0
-13 2 0
-13 4 0
13 -2 -4 0
-14 2 0
-14 5 0
14 -2 -5 0
-15 2 0
-15 6 0
15 -2 -6 0
-16 3 0
-16 4 0
16 -3 -4 0
-17 3 0
-17 5 0
17 -3 -5 0
-18 3 0
-18 6 0
18 -3 -6 0
-19 4 0
-19 5 0
19 -4 -5 0
-20 4 0
-20 6 0
20 -4 -6 0
-21 5 0
-21 6 0
21 -5 -6 0
22 0
10 -22 23 0
-10 -22 -23 0
10 -23 22 0
-10 22 23 0
11 -23 24 0
-11 -23 -24 0
11 -24 23 0
-11 23 24 0
18 -24 25 0
-18 -24 -25 0
18 -25 24 0
-18 24 25 0
19 -25 26 0
-19 -25 -26 0
19 -26 25 0
-19 25 26 0
20 -26 27 0
-20 -26 -27 0
20 -27 26 0
-20 26 27 0
-27 0
-28 0
1 -28 29 0
-1 -28 -29 0
1 -29 28 0
-1 28 29 0
2 -29 30 0
-2 -29 -30 0
2 -30 29 0
-2 29 30 0
3 -30 31 0
-3 -30 -31 0
3 -31 30 0
-3 30 31 0
5 -31 32 0
-5 -31 -32 0
5 -32 31 0
-5 31 32 0
8 -32 33 0
-8 -32 -33 0
8 -33 32 0
-8 32 33 0
9 -33 34 0
-9 -33 -34 0
9 -34 33 0
-9 33 34 0
12 -34 35 0
-12 -34 -35 0
12 -35 34 0
-12 34 35 0
14 -35 36 0
-14 -35 -36 0
14 -36 35 0
-14 35 36 0
16 -36 37 0
-16 -36 -37 0
16 -37 36 0
-16 36 37 0
21 -37 38 0
-21 -37 -38 0
21 -38 37 0
-21 37 38 0
-38 0
39 0
8 -39 40 0
-8 -39 -40 0
8 -40 39 0
-8 39 40 0
12 -40 41 0
-12 -40 -41 0
12 -41 40 0
-12 40 41 0
14 -41 42 0
-14 -41 -42 0
14 -42 41 0
-14 41 42 0
15 -42 43 0
-15 -42 -43 0
15 -43 42 0
-15 42 43 0
16 -43 44 0
-16 -43 -44 0
16 -44 43 0
-16 43 44 0
19 -44 45 0
-19 -44 -45 0
19 -45 44 0
-19 44 45 0
-45 0
-46 0
2 -46 47 0
-2 -46 -47 0
2 -47 46 0
-2 46 47 0
6 -47 48 0
-6 -47 -48 0
6 -48 47 0
-6 47 48 0
7 -48 49 0
-7 -48 -49 0
7 -49 48 0
-7 48 49 0
8 -49 50 0
-8 -49 -50 0
8 -50 49 0
-8 49 50 0
9 -50 51 0
-9 -50 -51 0
9 -51 50 0
-9 50 51 0
10 -51 52 0
-10 -51 -52 0
10 -52 51 0
-10 51 52 0
11 -52 53 0
-11 -52 -53 0
11 -53 52 0
-11 52 53 0
12 -53 54 0
-12 -53 -54 0
12 -54 53 0
-12 53 54 0
16 -54 55 0
-16 -54 -55 0
16 -55 54 0
-16 54 55 0
17 -55 56 0
-17 -55 -56 0
17 -56 55 0
-17 55 56 0
18 -56 57 0
-18 -56 -57 0
18 -57 56 0
-18 56 57 0
21 -57 58 0
-21 -57 -58 0
21 -58 57 0
-21 57 58 0
-58 0
59 0
1 -59 60 0
-1 -59 -60 0
1 -60 59 0
-1 59 60 0
3 -60 61 0
-3 -60 -61 0
3 -61 60 0
-3 60 61 0
5 -61 62 0
-5 -61 -62 0
5 -62 61 0
-5 61 62 0
6 -62 63 0
-6 -62 -63 0
6 -63 62 0
-6 62 63 0
8 -63 64 0
-8 -63 -64 0
8 -64 63 0
-8 63 64 0
9 -64 65 0
-9 -64 -65 0
9 -65 64 0
-9 64 65 0
10 -65 66 0
-10 -65 -66 0
10 -66 65 0
-10 65 66 0
16 -66 67 0
-16 -66 -67 0
16 -67 66 0
-16 66 67 0
17 -67 68 0
-17 -67 -68 0
17 -68 67 0
-17 67 68 0
20 -68 69 0
-20 -68 -69 0
20 -69 68 0
-20 68 69 0
-69 0
70 0
1 -70 71 0
-1 -70 -71 0
1 -71 70 0
-1 70 71 0
4 -71 72 0
-4 -71 -72 0
4 -72 71 0
-4 71 72 0
7 -72 73 0
-7 -72 -73 0
7 -73 72 0
-7 72 73 0
8 -73 74 0
-8 -73 -74 0
8 -74 73 0
-8 73 74 0
11 -74 75 0
-11 -74 -75 0
11 -75 74 0
-11 74 75 0
12 -75 76 0
-12 -75 -76 0
12 -76 75 0
-12 75 76 0
19 -76 77 0
-19 -76 -77 0
19 -77 76 0
-19 76 77 0
20 -77 78 0
-20 -77 -78 0
20 -78 77 0
-20 77 78 0
-78 0
